1 2008
2 1813
3 1783
4 1672
10 1601
36 1531
744 1526
999 1525



1 1970
2 1748
4 1726
6 1713
9 1664
14 1583
52 1527
169 1517
681 1514



1 1848
2 1770
3 1666
9 1638
11 1630
17 1618
41 1590
81 1588
171 1556
228 1531
309 1523
766 1506



1 1982
2 1707
3 1656
16 1629
24 1580
103 1540
623 1472



1 1918
2 1679
4 1678
9 1660
20 1638
22 1596
23 1586
54 1579
76 1569
133 1564
326 1539
372 1515



